
Gurobi 9.0.1 (linux64) logging started Thu Apr 30 05:57:48 2020

Gurobi Optimizer version 9.0.1 build v9.0.1rc0 (linux64)
Optimize a model with 896 rows, 990 columns and 6984 nonzeros
Model fingerprint: 0x17393400
Variable types: 0 continuous, 990 integer (980 binary)
Coefficient statistics:
  Matrix range     [1e+00, 5e+00]
  Objective range  [6e+00, 1e+02]
  Bounds range     [1e+00, 1e+00]
  RHS range        [1e+00, 1e+00]

User MIP start produced solution with objective 495 (0.00s)
Loaded user MIP start with objective 495

Presolve removed 260 rows and 384 columns
Presolve time: 0.06s
Presolved: 636 rows, 606 columns, 4806 nonzeros
Variable types: 0 continuous, 606 integer (598 binary)

Root relaxation: objective 3.877490e+02, 600 iterations, 0.03 seconds

    Nodes    |    Current Node    |     Objective Bounds      |     Work
 Expl Unexpl |  Obj  Depth IntInf | Incumbent    BestBd   Gap | It/Node Time

     0     0  387.74904    0  236  495.00000  387.74904  21.7%     -    0s
     0     0  398.93950    0  241  495.00000  398.93950  19.4%     -    0s
     0     0  399.69789    0  243  495.00000  399.69789  19.3%     -    0s
     0     0  399.71291    0  239  495.00000  399.71291  19.2%     -    0s
     0     0  399.71383    0  242  495.00000  399.71383  19.2%     -    0s
     0     0  412.66649    0  256  495.00000  412.66649  16.6%     -    0s
     0     0  413.02139    0  250  495.00000  413.02139  16.6%     -    0s
     0     0  413.14176    0  250  495.00000  413.14176  16.5%     -    0s
     0     0  420.52883    0  253  495.00000  420.52883  15.0%     -    0s
     0     0  422.42802    0  246  495.00000  422.42802  14.7%     -    0s
     0     0  422.84577    0  264  495.00000  422.84577  14.6%     -    0s
     0     0  422.97109    0  265  495.00000  422.97109  14.6%     -    0s
     0     0  422.97556    0  265  495.00000  422.97556  14.6%     -    0s
     0     0  430.76918    0  261  495.00000  430.76918  13.0%     -    0s
     0     0  432.56514    0  270  495.00000  432.56514  12.6%     -    0s
     0     0  432.96376    0  273  495.00000  432.96376  12.5%     -    0s
     0     0  433.02187    0  277  495.00000  433.02187  12.5%     -    0s
     0     0  433.02772    0  276  495.00000  433.02772  12.5%     -    0s
     0     0  434.34027    0  270  495.00000  434.34027  12.3%     -    1s
     0     0  434.56234    0  272  495.00000  434.56234  12.2%     -    1s
     0     0  434.57459    0  272  495.00000  434.57459  12.2%     -    1s
     0     0  435.36245    0  269  495.00000  435.36245  12.0%     -    1s
     0     0  435.47198    0  274  495.00000  435.47198  12.0%     -    1s
     0     0  435.48814    0  271  495.00000  435.48814  12.0%     -    1s
     0     0  436.05096    0  261  495.00000  436.05096  11.9%     -    1s
     0     0  436.17965    0  271  495.00000  436.17965  11.9%     -    1s
     0     0  436.19895    0  273  495.00000  436.19895  11.9%     -    1s
     0     0  436.25400    0  276  495.00000  436.25400  11.9%     -    1s
     0     0  436.25400    0  272  495.00000  436.25400  11.9%     -    1s
     0     0  436.36496    0  236  495.00000  436.36496  11.8%     -    1s
     0     0  436.36496    0  264  495.00000  436.36496  11.8%     -    1s
     0     0  436.36496    0  252  495.00000  436.36496  11.8%     -    1s
     0     0  436.36496    0  264  495.00000  436.36496  11.8%     -    1s
     0     0  436.36496    0  257  495.00000  436.36496  11.8%     -    1s
     0     0  436.36496    0  258  495.00000  436.36496  11.8%     -    1s
     0     0  436.36496    0  267  495.00000  436.36496  11.8%     -    1s
     0     0  436.36496    0  273  495.00000  436.36496  11.8%     -    1s
     0     0  436.36496    0  270  495.00000  436.36496  11.8%     -    1s
     0     0  436.36496    0  269  495.00000  436.36496  11.8%     -    1s
     0     0  436.36496    0  272  495.00000  436.36496  11.8%     -    1s
     0     0  438.25209    0  270  495.00000  438.25209  11.5%     -    1s
     0     0  439.07959    0  272  495.00000  439.07959  11.3%     -    1s
     0     0  439.19119    0  278  495.00000  439.19119  11.3%     -    1s
     0     0  439.20801    0  276  495.00000  439.20801  11.3%     -    1s
     0     0  440.29755    0  281  495.00000  440.29755  11.1%     -    2s
     0     0  440.43416    0  275  495.00000  440.43416  11.0%     -    2s
     0     0  440.85588    0  278  495.00000  440.85588  10.9%     -    2s
     0     0  440.94115    0  279  495.00000  440.94115  10.9%     -    2s
     0     0  440.95610    0  280  495.00000  440.95610  10.9%     -    2s
     0     0  441.08561    0  280  495.00000  441.08561  10.9%     -    2s
     0     0  441.11075    0  280  495.00000  441.11075  10.9%     -    2s
     0     0  441.14198    0  286  495.00000  441.14198  10.9%     -    2s
     0     0  441.14198    0  286  495.00000  441.14198  10.9%     -    2s
     0     2  441.17536    0  285  495.00000  441.17536  10.9%     -    2s
*   46    13              13     466.0000000  450.14064  3.40%   140    3s

Cutting planes:
  MIR: 23
  Zero half: 18
  RLT: 133

Explored 101 nodes (15483 simplex iterations) in 3.47 seconds
Thread count was 1 (of 40 available processors)

Solution count 2: 466 495 

Optimal solution found (tolerance 1.00e-04)
Best objective 4.660000000000e+02, best bound 4.660000000000e+02, gap 0.0000%

User-callback calls 1118, time in user-callback 0.00 sec
